[[96, 97, 87, 95, 86, 85, 84, 94, 93, 92, 91, 83, 82, 73], [74, 75, 76, 77, 68, 67, 66, 65, 64, 55, 56, 57, 58, 59, 49], [47, 46, 38, 48, 39, 40, 50, 41, 32, 29, 37, 28, 30, 31, 21, 22], [19, 20, 13, 12, 11, 10, 2, 3, 4, 14, 5, 6], [7, 8, 9, 18, 17, 16, 15, 23, 24, 25, 26], [27, 35, 36, 44, 34, 33, 43, 42, 45, 54, 52, 51, 60, 53, 63], [62, 61, 71, 72, 81, 80, 70, 69, 78, 79, 88, 89, 90, 99, 98]]